c User generated cnf file
p cnf 11 51
-1 2 11 0 
10 2 -8 0 
5 -8 3 0 
7 4 -6 0 
-4 5 7 0 
5 -6 7 0 
-10 3 9 0 
2 6 -5 0 
-6 8 4 0 
-3 9 1 0 
-3 6 8 0 
4 -11 8 0 
-1 8 3 0 
5 -4 6 0 
1 -4 7 0 
2 6 -6 0 
-10 2 3 0 
7 10 -8 0 
-10 2 4 0 
-6 9 6 0 
-11 2 11 0 
-8 8 5 0 
10 9 -5 0 
4 10 -6 0 
-6 9 2 0 
-4 10 2 0 
7 -7 6 0 
-8 6 2 0 
-3 9 7 0 
6 3 -9 0 
7 -5 7 0 
1 -8 9 0 
-3 10 6 0 
-6 10 7 0 
10 -10 1 0 
6 4 -5 0 
-4 3 4 0 
5 7 -9 0 
3 7 -9 0 
8 8 -10 0 
9 10 -8 0 
-11 3 1 0 
3 -2 7 0 
7 -6 7 0 
-1 10 3 0 
-2 5 10 0 
6 -10 3 0 
5 2 -8 0 
-3 4 1 0 
4 8 -9 0 
-1 9 8 0 
